11
2147483647 87 84 51 43 10 34 33 14 56 27 
87 2147483647 18 27 24 72 47 58 79 38 61 
84 18 2147483647 83 97 16 8 100 93 88 81 
51 27 83 2147483647 69 67 71 43 79 39 16 
43 24 97 69 2147483647 47 81 28 97 98 37 
10 72 16 67 47 2147483647 53 86 81 54 98 
34 47 8 71 81 53 2147483647 38 95 69 35 
33 58 100 43 28 86 38 2147483647 16 95 6 
14 79 93 79 97 81 95 16 2147483647 78 81 
56 38 88 39 98 54 69 95 78 2147483647 87 
27 61 81 16 37 98 35 6 81 87 2147483647 
